min: 47 x1_1 + 34 x1_2 + 25 x1_3 + 66 x1_4 + 23 x1_5 + 68 x1_6 + 70 x2_1 + 17 x2_2 + 51 x2_3 + 97 x2_4 + 66 x2_5 + 51 x2_6 + 71 x3_1 + 40 x3_2 + 86 x3_3 + 93 x3_4 + 35 x3_5 + 22 x3_6 + 15 x4_1 + 87 x4_2 + 77 x4_3 + 41 x4_4 + 93 x4_5 + 36 x4_6 + 10 x5_1 + 12 x5_2 + 98 x5_3 + 61 x5_4 + 39 x5_5 + 90 x5_6 + 57 x6_1 + 36 x6_2 + 64 x6_3 + 92 x6_4 + 61 x6_5 + 41 x6_6;

x1_1 + x1_2 + x1_3 + x1_4 + x1_5 + x1_6 = 4264;
x2_1 + x2_2 + x2_3 + x2_4 + x2_5 + x2_6 = 2836;
x3_1 + x3_2 + x3_3 + x3_4 + x3_5 + x3_6 = 3792;
x4_1 + x4_2 + x4_3 + x4_4 + x4_5 + x4_6 = 4669;
x5_1 + x5_2 + x5_3 + x5_4 + x5_5 + x5_6 = 1134;
x6_1 + x6_2 + x6_3 + x6_4 + x6_5 + x6_6 = 2869;

x1_1 + x2_1 + x3_1 + x4_1 + x5_1 + x6_1 = 7008;
x1_2 + x2_2 + x3_2 + x4_2 + x5_2 + x6_2 = 3711;
x1_3 + x2_3 + x3_3 + x4_3 + x5_3 + x6_3 = 1897;
x1_4 + x2_4 + x3_4 + x4_4 + x5_4 + x6_4 = 887;
x1_5 + x2_5 + x3_5 + x4_5 + x5_5 + x6_5 = 1065;
x1_6 + x2_6 + x3_6 + x4_6 + x5_6 + x6_6 = 4996;

int x1_1, x1_2, x1_3, x1_4, x1_5, x1_6, x2_1, x2_2, x2_3, x2_4, x2_5, x2_6, x3_1, x3_2, x3_3, x3_4, x3_5, x3_6, x4_1, x4_2, x4_3, x4_4, x4_5, x4_6, x5_1, x5_2, x5_3, x5_4, x5_5, x5_6, x6_1, x6_2, x6_3, x6_4, x6_5, x6_6;